/*********************************************
 * OPL 12.6.0.0 Data
 * Author: QZ61P8
 * Creation Date: 10.07.2014 at 08:59:12
 *********************************************/


nNetworks = 1;
nTime = 50;
nInterfaceTypes = 2;
nFlows = 16;

//channel model: generated Thu May 26 10:26:25 CEST 2016
availChunkBuckets = //[Networks, Time]  
[
	[28, 28, 28, 28, 28, 28, 28, 28, 28, 28, 28, 28, 28, 28, 28, 28, 28, 28, 28, 28, 28, 28, 28, 28, 28, 28, 28, 28, 28, 28, 28, 28, 28, 28, 28, 28, 28, 28, 28, 28, 28, 28, 28, 28, 28, 28, 28, 28, 28, 28]
];
	
network_cost = //[Networks] 
	[15];				//static cost per channel (change later to more realistic model)
network_lcy =
	[7];
network_jit =
	[4];	

network_type= //[Networks] 				//each channel has a specific type; e.g. WiFi, LTE..
	[2];		
nClientInterfaces = //[InterfaceTypes]
	[1, 1];	

//requests: generated Thu May 26 10:26:25 CEST 2016
nChunks = 				[300, 660, 180, 600, 550, 1210, 330, 1100, 350, 770, 210, 700, 325, 715, 195, 650];		//[Flows]		
deadline= 				[38, 36, 24, 13, 42, 31, 28, 25, 23, 45, 45, 46, 31, 31, 32, 6];		//[Flows] 
prefStartTime = 		[22, 0, 15, 7, 26, 0, 12, 18, 7, 0, 22, 39, 15, 0, 0, 0];		//[Flows]
tpMaxWindow = 			[1, 1, 1, 1, 1, 1, 1, 1, 1, 1, 1, 1, 1, 1, 1, 1];		//[Flows]	//0 says not relevant/no maximum transfer rate; upper throughput limit
tpMaxChunks = 			[100000, 100000, 20, 100000, 100000, 100000, 20, 100000, 100000, 100000, 9, 100000, 100000, 100000, 6, 100000]; 		//maximum of chunks in above specified time frame
tpMinWindow = 			[12, 100000, 1, 100000, 12, 100000, 1, 100000, 12, 100000, 1, 100000, 14, 100000, 1, 100000];		//[Flows]  //1000 says not relevant / no minimum transfer rate
tpMinChunks = 			[54, 1, 5, 1, 102, 1, 20, 1, 63, 1, 9, 1, 70, 1, 1, 1]; 		//minimum of chunks in above specified time frame; lower throughput limit
latency = 				[10, 10, 4, 10, 10, 10, 4, 10, 10, 10, 4, 10, 10, 10, 4, 10];	
jitter = 				[10, 10, 4, 10, 10, 10, 4, 10, 10, 10, 4, 10, 10, 10, 4, 10];

hysteresis = 500;
importance = [
	[9, 0, 20, 9, 6, 0, 20, 8, 5, 0, 20, 9, 5, 0, 20, 9],	//deadline
	[5, 0, 10, 7, 2, 0, 10, 9, 3, 0, 10, 8, 1, 0, 10, 9],	//start time
	[, , , , , , , , , , , , , , , ],	//throughput upper bound
	[6, 0, 50, 0, 8, 0, 50, 0, 7, 0, 50, 0, 6, 0, 50, 0],	//throughput lower bound
	[4, 1, 6, 14, 5, 1, 6, 16, 5, 2, 5, 16, 6, 1, 6, 18],	//unsched
	[0, 0, 9, 0, 0, 0, 7, 0, 0, 0, 9, 0, 0, 0, 8, 0],	//latency
	[0, 0, 7, 0, 0, 0, 9, 0, 0, 0, 9, 0, 0, 0, 7, 0]	//jitter
]; //[ImportanceTypes, Flows]

//user profiles
userImportance = [5, 3, 8, 7, 5, 2, 9, 9, 8, 1, 8, 8, 8, 3, 10, 10]; //[Flows]
costImp = 15; //former willingness to pay is now inversely proportional value: cost importance 
 
